NAME 
ROWS
 N  OBJ
 L  R0      
 E  R1      
 E  R2      
 E  R3      
 E  R4      
 E  R5      
 E  R6      
 E  R7      
 E  R8      
 E  R9      
 E  R10     
 E  R11     
 E  R12     
 E  R13     
 E  R14     
 E  R15     
 E  R16     
 E  R17     
 E  R18     
 E  R19     
 E  R20     
COLUMNS
    MARKER    'MARKER'                 'INTORG'
    I0(9)     OBJ       27
    I0(9)     R0        -200
    I0(9)     R1        9
    I0(9)     R2        19
    I0(9)     R5        6
    I0(9)     R7        15
    I0(9)     R10       18
    I0(9)     R11       3
    I0(9)     R12       15
    I0(9)     R20       1
    I1(13)    OBJ       -60
    I1(13)    R0        42
    I1(13)    R1        15
    I1(13)    R2        8
    I1(13)    R3        2
    I1(13)    R4        9
    I1(13)    R5        3
    I1(13)    R6        7
    I1(13)    R8        2
    I1(13)    R9        5
    I1(13)    R10       19
    I1(13)    R11       17
    I1(13)    R12       17
    I1(13)    R20       1
    I2(11)    OBJ       91
    I2(11)    R0        113
    I2(11)    R1        1
    I2(11)    R2        -1
    I2(11)    R3        6
    I2(11)    R6        6
    I2(11)    R7        11
    I2(11)    R8        -1
    I2(11)    R9        5
    I2(11)    R10       2
    I2(11)    R11       17
    I2(11)    R20       1
    I3(12)    OBJ       121
    I3(12)    R0        83
    I3(12)    R1        7
    I3(12)    R2        13
    I3(12)    R3        3
    I3(12)    R4        11
    I3(12)    R5        17
    I3(12)    R6        1
    I3(12)    R7        13
    I3(12)    R9        3
    I3(12)    R10       2
    I3(12)    R11       12
    I3(12)    R20       1
    I4(13)    OBJ       -165
    I4(13)    R0        155
    I4(13)    R1        14
    I4(13)    R2        -1
    I4(13)    R3        14
    I4(13)    R4        10
    I4(13)    R6        4
    I4(13)    R7        7
    I4(13)    R8        -1
    I4(13)    R9        1
    I4(13)    R10       3
    I4(13)    R11       -1
    I4(13)    R12       13
    I4(13)    R20       1
    I5(10)    OBJ       -47
    I5(10)    R0        188
    I5(10)    R1        18
    I5(10)    R3        16
    I5(10)    R4        7
    I5(10)    R5        18
    I5(10)    R7        17
    I5(10)    R10       1
    I5(10)    R11       9
    I5(10)    R12       6
    I5(10)    R20       1
    I6(11)    OBJ       127
    I6(11)    R0        56
    I6(11)    R1        19
    I6(11)    R2        9
    I6(11)    R4        12
    I6(11)    R5        16
    I6(11)    R6        13
    I6(11)    R9        14
    I6(11)    R10       12
    I6(11)    R11       11
    I6(11)    R12       12
    I6(11)    R20       1
    I7(14)    OBJ       -12
    I7(14)    R0        -174
    I7(14)    R1        13
    I7(14)    R2        16
    I7(14)    R3        6
    I7(14)    R4        16
    I7(14)    R5        8
    I7(14)    R6        16
    I7(14)    R7        4
    I7(14)    R8        6
    I7(14)    R9        2
    I7(14)    R10       13
    I7(14)    R11       8
    I7(14)    R12       1
    I7(14)    R20       1
    I8(9)     OBJ       -148
    I8(9)     R0        -20
    I8(9)     R1        14
    I8(9)     R2        4
    I8(9)     R3        17
    I8(9)     R5        7
    I8(9)     R6        3
    I8(9)     R10       17
    I8(9)     R12       18
    I8(9)     R20       1
    I9(10)    OBJ       -18
    I9(10)    R0        133
    I9(10)    R1        16
    I9(10)    R2        9
    I9(10)    R3        2
    I9(10)    R4        11
    I9(10)    R5        12
    I9(10)    R6        15
    I9(10)    R7        12
    I9(10)    R10       2
    I9(10)    R20       1
    I10(12)   OBJ       35
    I10(12)   R0        -182
    I10(12)   R1        5
    I10(12)   R2        5
    I10(12)   R3        2
    I10(12)   R4        2
    I10(12)   R5        11
    I10(12)   R6        19
    I10(12)   R7        13
    I10(12)   R9        17
    I10(12)   R10       16
    I10(12)   R12       13
    I10(12)   R20       1
    I11(12)   OBJ       47
    I11(12)   R0        32
    I11(12)   R1        18
    I11(12)   R4        19
    I11(12)   R5        6
    I11(12)   R6        15
    I11(12)   R7        -1
    I11(12)   R8        10
    I11(12)   R9        1
    I11(12)   R10       -1
    I11(12)   R11       8
    I11(12)   R12       1
    I11(12)   R20       1
    MARKER    'MARKER'                 'INTEND'
    C12(12)   OBJ       9
    C12(12)   R3        2
    C12(12)   R4        2
    C12(12)   R5        7
    C12(12)   R6        18
    C12(12)   R7        15
    C12(12)   R8        10
    C12(12)   R9        7
    C12(12)   R11       13
    C12(12)   R12       14
    C12(12)   R14       16
    C12(12)   R15       8
    C12(12)   R17       3
    C13(16)   OBJ       -7
    C13(16)   R0        -6
    C13(16)   R1        8
    C13(16)   R3        -1
    C13(16)   R4        3
    C13(16)   R5        9
    C13(16)   R6        6
    C13(16)   R7        18
    C13(16)   R8        16
    C13(16)   R9        18
    C13(16)   R11       -1
    C13(16)   R12       1
    C13(16)   R13       1
    C13(16)   R14       19
    C13(16)   R15       19
    C13(16)   R17       2
    C13(16)   R19       8
    C14(16)   OBJ       -5
    C14(16)   R0        7
    C14(16)   R1        3
    C14(16)   R2        16
    C14(16)   R3        16
    C14(16)   R6        15
    C14(16)   R9        3
    C14(16)   R10       3
    C14(16)   R11       7
    C14(16)   R12       13
    C14(16)   R13       4
    C14(16)   R14       9
    C14(16)   R15       1
    C14(16)   R16       14
    C14(16)   R17       12
    C14(16)   R18       18
    C14(16)   R19       9
    C15(17)   OBJ       -3
    C15(17)   R0        -8
    C15(17)   R1        -1
    C15(17)   R2        5
    C15(17)   R3        9
    C15(17)   R4        4
    C15(17)   R5        1
    C15(17)   R6        1
    C15(17)   R8        2
    C15(17)   R9        11
    C15(17)   R10       6
    C15(17)   R12       3
    C15(17)   R13       15
    C15(17)   R14       6
    C15(17)   R16       8
    C15(17)   R17       8
    C15(17)   R18       13
    C15(17)   R19       11
    C16(17)   OBJ       -10
    C16(17)   R0        -1
    C16(17)   R1        4
    C16(17)   R4        3
    C16(17)   R5        18
    C16(17)   R6        18
    C16(17)   R7        5
    C16(17)   R8        16
    C16(17)   R9        5
    C16(17)   R10       7
    C16(17)   R11       4
    C16(17)   R12       12
    C16(17)   R13       1
    C16(17)   R14       8
    C16(17)   R15       4
    C16(17)   R16       15
    C16(17)   R18       14
    C16(17)   R19       4
    C17(13)   OBJ       -2
    C17(13)   R0        -9
    C17(13)   R4        1
    C17(13)   R5        11
    C17(13)   R6        13
    C17(13)   R9        9
    C17(13)   R10       13
    C17(13)   R13       -1
    C17(13)   R14       19
    C17(13)   R15       4
    C17(13)   R16       9
    C17(13)   R17       19
    C17(13)   R18       17
    C17(13)   R19       19
    C18(14)   OBJ       -5
    C18(14)   R0        8
    C18(14)   R2        2
    C18(14)   R3        6
    C18(14)   R4        19
    C18(14)   R6        3
    C18(14)   R8        12
    C18(14)   R10       4
    C18(14)   R11       1
    C18(14)   R12       19
    C18(14)   R13       4
    C18(14)   R15       16
    C18(14)   R16       9
    C18(14)   R18       -1
    C18(14)   R19       5
    C19(18)   OBJ       6
    C19(18)   R0        -9
    C19(18)   R1        1
    C19(18)   R2        19
    C19(18)   R4        18
    C19(18)   R5        4
    C19(18)   R6        14
    C19(18)   R7        -1
    C19(18)   R8        11
    C19(18)   R9        8
    C19(18)   R10       14
    C19(18)   R11       8
    C19(18)   R12       14
    C19(18)   R13       16
    C19(18)   R15       3
    C19(18)   R16       18
    C19(18)   R17       14
    C19(18)   R18       11
    C19(18)   R19       4
    C20(1)    R1        1
    C21(1)    R2        1
    C22(1)    R3        1
    C23(1)    R4        1
    C24(1)    R5        1
    C25(1)    R6        1
    C26(1)    R7        1
    C27(1)    R8        1
    C28(1)    R9        1
    C29(1)    R10       1
    C30(1)    R11       1
    C31(1)    R12       1
    C32(1)    R13       1
    C33(1)    R14       1
    C34(1)    R15       1
    C35(1)    R16       1
    C36(1)    R17       1
    C37(1)    R18       1
    C38(1)    R19       1
    C39(1)    R20       1
RHS
    RHS1      R0        3.4435926573426576e+02
    RHS1      R1        96
    RHS1      R2        63
    RHS1      R3        91
    RHS1      R4        74
    RHS1      R5        78
    RHS1      R6        90
    RHS1      R7        92
    RHS1      R8        70
    RHS1      R9        76
    RHS1      R10       66
    RHS1      R11       98
    RHS1      R12       72
    RHS1      R13       84
    RHS1      R14       69
    RHS1      R15       70
    RHS1      R16       97
    RHS1      R17       80
    RHS1      R18       57
    RHS1      R19       78
    RHS1      R20       4
BOUNDS
 UP BND1      I0(9)     1
 UP BND1      I1(13)    1
 UP BND1      I2(11)    1
 UP BND1      I3(12)    1
 UP BND1      I4(13)    1
 UP BND1      I5(10)    1
 UP BND1      I6(11)    1
 UP BND1      I7(14)    1
 UP BND1      I8(9)     1
 UP BND1      I9(10)    1
 UP BND1      I10(12)   1
 UP BND1      I11(12)   1
ENDATA
